c PMC file for PBN EPFL/random_control/ctrl_distill_EPFL/random_control/ctrl_miter written by probABC
p cnf 257 561
c ind 1 2 3 4 5 6 7 174 175 176 177 178 179 180 181 182 183 184 185 186 187 188 189 190 191 192 193 194 195 196 197 198 199 200 201 202 203 204 205 206 207 208 209 210 211 212 213 214 215 216 217 218 219 220 221 222 223 224 225 226 227 228 229 230 231 232 233 234 235 236 0
30 -1 -4 0
-30 1 0
-30 4 0
31 5 -30 0
-31 -5 0
-31 30 0
32 -4 -5 0
-32 4 0
-32 5 0
33 4 5 0
-33 -4 0
-33 -5 0
34 32 33 0
-34 -32 0
-34 -33 0
35 8 34 0
-35 -8 0
-35 -34 0
36 -8 -34 0
-36 8 0
-36 34 0
37 35 36 0
-37 -35 0
-37 -36 0
38 1 -37 0
-38 -1 0
-38 37 0
39 31 38 0
-39 -31 0
-39 -38 0
40 -2 39 0
-40 2 0
-40 -39 0
41 1 -32 0
-41 -1 0
-41 32 0
42 10 41 0
-42 -10 0
-42 -41 0
43 -10 -41 0
-43 10 0
-43 41 0
44 42 43 0
-44 -42 0
-44 -43 0
45 2 -44 0
-45 -2 0
-45 44 0
46 40 45 0
-46 -40 0
-46 -45 0
47 -11 46 0
-47 11 0
-47 -46 0
48 11 -46 0
-48 -11 0
-48 46 0
49 47 48 0
-49 -47 0
-49 -48 0
50 -1 -5 0
-50 1 0
-50 5 0
51 2 32 0
-51 -2 0
-51 -32 0
52 -2 -32 0
-52 2 0
-52 32 0
53 33 50 0
-53 -33 0
-53 -50 0
54 51 -53 0
-54 -51 0
-54 53 0
55 52 -54 0
-55 -52 0
-55 54 0
56 49 55 0
-56 -49 0
-56 -55 0
57 -49 -55 0
-57 49 0
-57 55 0
58 3 56 0
-58 -3 0
-58 -56 0
59 57 -58 0
-59 -57 0
-59 58 0
60 2 31 0
-60 -2 0
-60 -31 0
61 3 60 0
-61 -3 0
-61 -60 0
62 -6 -32 0
-62 6 0
-62 32 0
63 -1 7 0
-63 1 0
-63 -7 0
64 -62 -63 0
-64 62 0
-64 63 0
65 -2 64 0
-65 2 0
-65 -64 0
66 -61 65 0
-66 61 0
-66 -65 0
67 26 62 0
-67 -26 0
-67 -62 0
68 -26 -62 0
-68 26 0
-68 62 0
69 -63 67 0
-69 63 0
-69 -67 0
70 68 -69 0
-70 -68 0
-70 69 0
71 -2 70 0
-71 2 0
-71 -70 0
72 -61 71 0
-72 61 0
-72 -71 0
73 -27 72 0
-73 27 0
-73 -72 0
74 27 -72 0
-74 -27 0
-74 72 0
75 73 74 0
-75 -73 0
-75 -74 0
76 -66 75 0
-76 66 0
-76 -75 0
77 66 -75 0
-77 -66 0
-77 75 0
78 76 77 0
-78 -76 0
-78 -77 0
79 -2 44 0
-79 2 0
-79 -44 0
80 51 79 0
-80 -51 0
-80 -79 0
81 -3 80 0
-81 3 0
-81 -80 0
82 28 81 0
-82 -28 0
-82 -81 0
83 -1 -2 0
-83 1 0
-83 2 0
84 -32 83 0
-84 32 0
-84 -83 0
85 -3 84 0
-85 3 0
-85 -84 0
86 -82 85 0
-86 82 0
-86 -85 0
87 82 -85 0
-87 -82 0
-87 85 0
88 86 87 0
-88 -86 0
-88 -87 0
89 -3 -21 0
-89 3 0
-89 21 0
90 3 -20 0
-90 -3 0
-90 20 0
91 22 90 0
-91 -22 0
-91 -90 0
92 89 91 0
-92 -89 0
-92 -91 0
93 22 -89 0
-93 -22 0
-93 89 0
94 2 3 0
-94 -2 0
-94 -3 0
95 -1 -8 0
-95 1 0
-95 8 0
96 -94 -95 0
-96 94 0
-96 95 0
97 1 -2 0
-97 -1 0
-97 2 0
98 -4 -12 0
-98 4 0
-98 12 0
99 -97 -98 0
-99 97 0
-99 98 0
100 2 -10 0
-100 -2 0
-100 10 0
101 13 100 0
-101 -13 0
-101 -100 0
102 99 -101 0
-102 -99 0
-102 101 0
103 3 102 0
-103 -3 0
-103 -102 0
104 -2 -3 0
-104 2 0
-104 3 0
105 -10 -104 0
-105 10 0
-105 104 0
106 25 105 0
-106 -25 0
-106 -105 0
107 -25 -105 0
-107 25 0
-107 105 0
108 106 107 0
-108 -106 0
-108 -107 0
109 3 84 0
-109 -3 0
-109 -84 0
110 -5 -14 0
-110 5 0
-110 14 0
111 109 -110 0
-111 -109 0
-111 110 0
112 -2 -33 0
-112 2 0
-112 33 0
113 -3 112 0
-113 3 0
-113 -112 0
114 -17 113 0
-114 17 0
-114 -113 0
115 -2 -23 0
-115 2 0
-115 23 0
116 24 115 0
-116 -24 0
-116 -115 0
117 -24 -115 0
-117 24 0
-117 115 0
118 -3 116 0
-118 3 0
-118 -116 0
119 117 -118 0
-119 -117 0
-119 118 0
120 -1 -32 0
-120 1 0
-120 32 0
121 2 -120 0
-121 -2 0
-121 120 0
122 52 121 0
-122 -52 0
-122 -121 0
123 3 122 0
-123 -3 0
-123 -122 0
124 -8 -104 0
-124 8 0
-124 104 0
125 9 124 0
-125 -9 0
-125 -124 0
126 -9 -124 0
-126 9 0
-126 124 0
127 125 126 0
-127 -125 0
-127 -126 0
128 123 -127 0
-128 -123 0
-128 127 0
129 3 4 0
-129 -3 0
-129 -4 0
130 -5 -129 0
-130 5 0
-130 129 0
131 -97 -130 0
-131 97 0
-131 130 0
132 37 -104 0
-132 -37 0
-132 104 0
133 34 -104 0
-133 -34 0
-133 104 0
134 16 133 0
-134 -16 0
-134 -133 0
135 -16 -133 0
-135 16 0
-135 133 0
136 134 135 0
-136 -134 0
-136 -135 0
137 132 136 0
-137 -132 0
-137 -136 0
138 -132 -136 0
-138 132 0
-138 136 0
139 131 137 0
-139 -131 0
-139 -137 0
140 138 -139 0
-140 -138 0
-140 139 0
141 112 120 0
-141 -112 0
-141 -120 0
142 -3 141 0
-142 3 0
-142 -141 0
143 -41 -94 0
-143 41 0
-143 94 0
144 142 143 0
-144 -142 0
-144 -143 0
145 -1 -37 0
-145 1 0
-145 37 0
146 1 33 0
-146 -1 0
-146 -33 0
147 -2 146 0
-147 2 0
-147 -146 0
148 145 -147 0
-148 -145 0
-148 147 0
149 121 148 0
-149 -121 0
-149 -148 0
150 -3 149 0
-150 3 0
-150 -149 0
151 -44 -94 0
-151 44 0
-151 94 0
152 150 151 0
-152 -150 0
-152 -151 0
153 -15 152 0
-153 15 0
-153 -152 0
154 15 -152 0
-154 -15 0
-154 152 0
155 153 154 0
-155 -153 0
-155 -154 0
156 -144 155 0
-156 144 0
-156 -155 0
157 144 -155 0
-157 -144 0
-157 155 0
158 156 157 0
-158 -156 0
-158 -157 0
159 18 19 0
-159 -18 0
-159 -19 0
160 93 -159 0
-160 -93 0
-160 159 0
161 96 -160 0
-161 -96 0
-161 160 0
162 92 -161 0
-162 -92 0
-162 161 0
163 103 108 0
-163 -103 0
-163 -108 0
164 111 114 0
-164 -111 0
-164 -114 0
165 119 -164 0
-165 -119 0
-165 164 0
166 -162 -163 0
-166 162 0
-166 163 0
167 -165 -166 0
-167 165 0
-167 166 0
168 128 -167 0
-168 -128 0
-168 167 0
169 140 -168 0
-169 -140 0
-169 168 0
170 88 -169 0
-170 -88 0
-170 169 0
171 78 -170 0
-171 -78 0
-171 170 0
172 59 -171 0
-172 -59 0
-172 171 0
173 158 -172 0
-173 -158 0
-173 172 0
29 173 0
-29 -173 0
29 0
8 -174 -237 0
-8 174 0
-8 237 0
237 -175 -176 0
-237 175 0
-237 176 0
9 -177 -238 0
-9 177 0
-9 238 0
238 -178 -179 0
-238 178 0
-238 179 0
10 -180 -239 0
-10 180 0
-10 239 0
239 -181 -182 0
-239 181 0
-239 182 0
11 -183 -240 0
-11 183 0
-11 240 0
240 -184 -185 0
-240 184 0
-240 185 0
12 -186 -241 0
-12 186 0
-12 241 0
241 -187 -188 0
-241 187 0
-241 188 0
13 -189 -242 0
-13 189 0
-13 242 0
242 -190 -191 0
-242 190 0
-242 191 0
14 -192 -243 0
-14 192 0
-14 243 0
243 -193 -194 0
-243 193 0
-243 194 0
15 -195 -244 0
-15 195 0
-15 244 0
244 -196 -197 0
-244 196 0
-244 197 0
16 -198 -245 0
-16 198 0
-16 245 0
245 -199 -200 0
-245 199 0
-245 200 0
17 -201 -246 0
-17 201 0
-17 246 0
246 -202 -203 0
-246 202 0
-246 203 0
18 -204 -247 0
-18 204 0
-18 247 0
247 -205 -206 0
-247 205 0
-247 206 0
19 -207 -248 0
-19 207 0
-19 248 0
248 -208 -209 0
-248 208 0
-248 209 0
20 -210 -249 0
-20 210 0
-20 249 0
249 -211 -212 0
-249 211 0
-249 212 0
21 -213 -250 0
-21 213 0
-21 250 0
250 -214 -215 0
-250 214 0
-250 215 0
22 -216 -251 0
-22 216 0
-22 251 0
251 -217 -218 0
-251 217 0
-251 218 0
23 -219 -252 0
-23 219 0
-23 252 0
252 -220 -221 0
-252 220 0
-252 221 0
24 -222 -253 0
-24 222 0
-24 253 0
253 -223 -224 0
-253 223 0
-253 224 0
25 -225 -254 0
-25 225 0
-25 254 0
254 -226 -227 0
-254 226 0
-254 227 0
26 -228 -255 0
-26 228 0
-26 255 0
255 -229 -230 0
-255 229 0
-255 230 0
27 -231 -256 0
-27 231 0
-27 256 0
256 -232 -233 0
-256 232 0
-256 233 0
28 -234 -257 0
-28 234 0
-28 257 0
257 -235 -236 0
-257 235 0
-257 236 0
